171
49
50
51
52
53
73
77
78
82
79
80
81
112
115
116
117
118
119
124
146
145
144
143
151
13
17
21
29
23
26
27
28
30
31
155
41
42
55
59
66
63
56
64
65
88
153
154
89
90
91
83
84
71
60
37
22
24
25
150
161
160
149
148
147
137
136
129
128
138
139
140
141
6
152
142
134
164
127
126
125
135
7
8
14
15
159
16
32
158
36
157
33
34
43
54
58
57
62
61
68
69
67
167
70
87
85
86
108
166
93
92
94
97
104
130
132
111
0
1
2
3
5
133
169
110
109
107
106
105
165
163
99
98
95
96
100
101
162
123
122
121
120
102
103
114
113
131
4
9
10
76
74
75
11
12
18
19
20
39
38
35
156
40
45
44
46
47
48
170
168
72
49
